
Gurobi 11.0.3 (linux64) logging started Mon 18 Nov 2024 07:30:18 PM CST

Set parameter LogFile to value "/home/dlcole3/graph_abstraction/hierarchical_graphs/git_storage/CS1/HP_low_reserves/gurobi_logs/serial/logfile_ST4_7.log"

Gurobi 11.0.3 (linux64) logging started Mon 18 Nov 2024 07:47:09 PM CST

Set parameter LogFile to value "/home/dlcole3/graph_abstraction/hierarchical_graphs/git_storage/CS1/HP_low_reserves/gurobi_logs/serial/logfile_ST4_7.log"
Gurobi Optimizer version 11.0.3 build v11.0.3rc0 (linux64 - "Ubuntu 18.04.3 LTS")

CPU model: Intel(R) Xeon(R) CPU E5-2698 v4 @ 2.20GHz, instruction set [SSE2|AVX|AVX2]
Thread count: 40 physical cores, 80 logical processors, using up to 20 threads

Optimize a model with 29168 rows, 50688 columns and 136175 nonzeros
Model fingerprint: 0xf1187584
Variable types: 46944 continuous, 3744 integer (3744 binary)
Coefficient statistics:
  Matrix range     [6e-01, 2e+04]
  Objective range  [2e+00, 2e+04]
  Bounds range     [5e-02, 2e+05]
  RHS range        [5e-02, 7e+03]
Presolve removed 14637 rows and 39039 columns
Presolve time: 0.34s
Presolved: 14531 rows, 11649 columns, 62027 nonzeros
Variable types: 8657 continuous, 2992 integer (2992 binary)
Found heuristic solution: objective 171602.54373
Found heuristic solution: objective 162226.53965
Found heuristic solution: objective 132923.94685

Root relaxation: objective 1.926581e+04, 6706 iterations, 0.28 seconds (0.19 work units)

    Nodes    |    Current Node    |     Objective Bounds      |     Work
 Expl Unexpl |  Obj  Depth IntInf | Incumbent    BestBd   Gap | It/Node Time

     0     0 19265.8137    0    5 132923.947 19265.8137  85.5%     -    1s
H    0     0                    132923.94679 19265.8137  85.5%     -    1s
H    0     0                    20841.604775 19265.8137  7.56%     -    1s
     0     0 19265.8137    0    5 20841.6048 19265.8137  7.56%     -    1s
     0     0 19265.8137    0    2 20841.6048 19265.8137  7.56%     -    2s
H    0     0                    20841.604649 19265.8137  7.56%     -    2s
     0     0 19265.8137    0    2 20841.6046 19265.8137  7.56%     -    2s
     0     2 19265.8137    0    2 20841.6046 19265.8137  7.56%     -    2s
*   38    32               5    20461.739851 19272.9555  5.81%   8.6    2s
*   43    32               5    20461.699176 19272.9555  5.81%  10.4    2s
H  105    79                    20461.699081 19278.4549  5.78%   9.0    2s
H  118    79                    20461.699045 19286.3421  5.74%   8.7    2s
H  120    79                    19795.370120 19286.3421  2.57%   8.6    2s
H  120    79                    19794.491978 19286.3421  2.57%   8.6    2s
H  208    59                    19783.497302 19422.0637  1.83%   5.9    3s
H  208    59                    19783.158598 19422.0637  1.83%   5.9    3s

Explored 380 nodes (14580 simplex iterations) in 3.15 seconds (1.94 work units)
Thread count was 20 (of 80 available processors)

Solution count 10: 19783.2 19783.2 19794.5 ... 220582

Optimal solution found (tolerance 3.00e-03)
Best objective 1.978315859878e+04, best bound 1.976905097934e+04, gap 0.0713%

User-callback calls 2349, time in user-callback 0.00 sec
